
Gurobi 9.5.2 (win64) logging started Tue Jan 16 15:06:11 2024

Set parameter LogFile to value "./ccga_results/2024-01-16 15-05-58-772/MSP_TimeStampConvert_gurobi_log.txt"
Set parameter TimeLimit to value 7195

Gurobi 9.5.2 (win64) logging started Tue Jan 16 15:06:14 2024

Set parameter LogFile to value "./ccga_results/2024-01-16 15-05-58-772/MSP_TimeStampConvert_gurobi_log.txt"
Set parameter TimeLimit to value 7195
Gurobi Optimizer version 9.5.2 build v9.5.2rc0 (win64)
Thread count: 10 physical cores, 20 logical processors, using up to 20 threads
Optimize a model with 300 rows, 229 columns and 738 nonzeros
Model fingerprint: 0x73c47342
Variable types: 13 continuous, 216 integer (216 binary)
Coefficient statistics:
  Matrix range     [1e+00, 1e+00]
  Objective range  [1e+00, 1e+00]
  Bounds range     [1e+03, 1e+03]
  RHS range        [1e+00, 1e+00]
Found heuristic solution: objective 12000.000000

Explored 0 nodes (0 simplex iterations) in 0.00 seconds (0.00 work units)
Thread count was 1 (of 20 available processors)

Solution count 1: 12000 

Optimal solution found (tolerance 1.00e-02)
Best objective 1.200000000000e+04, best bound 1.200000000000e+04, gap 0.0000%

User-callback calls 21, time in user-callback 0.00 sec
Set parameter TimeLimit to value 7189
Gurobi Optimizer version 9.5.2 build v9.5.2rc0 (win64)
Thread count: 10 physical cores, 20 logical processors, using up to 20 threads
Optimize a model with 1081 rows, 481 columns and 3233 nonzeros
Model fingerprint: 0x0855efbd
Variable types: 241 continuous, 240 integer (240 binary)
Coefficient statistics:
  Matrix range     [3e-01, 8e+02]
  Objective range  [1e+00, 1e+00]
  Bounds range     [1e+03, 1e+03]
  RHS range        [1e+00, 1e+08]

MIP start from previous solve did not produce a new incumbent solution

Presolve removed 676 rows and 256 columns
Presolve time: 0.01s
Presolved: 405 rows, 225 columns, 1252 nonzeros
Variable types: 92 continuous, 133 integer (133 binary)
Found heuristic solution: objective 5563.8153541
Found heuristic solution: objective 5844.4929825
Found heuristic solution: objective 6671.4658344

Root relaxation: objective 7.950000e+03, 107 iterations, 0.00 seconds (0.00 work units)

    Nodes    |    Current Node    |     Objective Bounds      |     Work
 Expl Unexpl |  Obj  Depth IntInf | Incumbent    BestBd   Gap | It/Node Time

H    0     0                    7950.0000000 7950.00000  0.00%     -    0s
     0     0 7950.00000    0   14 7950.00000 7950.00000  0.00%     -    0s

Explored 1 nodes (107 simplex iterations) in 0.02 seconds (0.01 work units)
Thread count was 20 (of 20 available processors)

Solution count 4: 7950 6671.47 5844.49 5563.82 

Optimal solution found (tolerance 1.00e-02)
Best objective 7.950000000000e+03, best bound 7.950000000000e+03, gap 0.0000%

User-callback calls 831, time in user-callback 0.00 sec
Set parameter TimeLimit to value 7188
Gurobi Optimizer version 9.5.2 build v9.5.2rc0 (win64)
Thread count: 10 physical cores, 20 logical processors, using up to 20 threads
Optimize a model with 1862 rows, 733 columns and 5728 nonzeros
Model fingerprint: 0xd495c64f
Variable types: 469 continuous, 264 integer (264 binary)
Coefficient statistics:
  Matrix range     [3e-01, 8e+02]
  Objective range  [1e+00, 1e+00]
  Bounds range     [1e+03, 1e+03]
  RHS range        [1e+00, 1e+08]

MIP start from previous solve did not produce a new incumbent solution

Presolve removed 970 rows and 332 columns
Presolve time: 0.01s
Presolved: 892 rows, 401 columns, 3002 nonzeros
Variable types: 288 continuous, 113 integer (113 binary)
Found heuristic solution: objective 3943.3823505

Root relaxation: objective 6.408598e+03, 501 iterations, 0.00 seconds (0.00 work units)

    Nodes    |    Current Node    |     Objective Bounds      |     Work
 Expl Unexpl |  Obj  Depth IntInf | Incumbent    BestBd   Gap | It/Node Time

     0     0 6408.59795    0    7 3943.38235 6408.59795  62.5%     -    0s
H    0     0                    6119.8611111 6408.59795  4.72%     -    0s
H    0     0                    6299.8611111 6408.59795  1.73%     -    0s
     0     0 6408.59795    0   20 6299.86111 6408.59795  1.73%     -    0s
     0     0 6408.59795    0   23 6299.86111 6408.59795  1.73%     -    0s
H    0     0                    6334.3055556 6408.59795  1.17%     -    0s
     0     0 6408.59795    0    8 6334.30556 6408.59795  1.17%     -    0s
     0     0 6386.21199    0   11 6334.30556 6386.21199  0.82%     -    0s

Cutting planes:
  Gomory: 2
  Cover: 1
  MIR: 3
  Flow cover: 5

Explored 1 nodes (1092 simplex iterations) in 0.08 seconds (0.07 work units)
Thread count was 20 (of 20 available processors)

Solution count 4: 6334.31 6299.86 6119.86 3943.38 

Optimal solution found (tolerance 1.00e-02)
Best objective 6.334305555556e+03, best bound 6.386211988304e+03, gap 0.8194%

User-callback calls 793, time in user-callback 0.00 sec
Gurobi Optimizer version 9.5.2 build v9.5.2rc0 (win64)
Thread count: 10 physical cores, 20 logical processors, using up to 20 threads
Optimize a model with 2643 rows, 985 columns and 8223 nonzeros
Model fingerprint: 0x84a7a25c
Variable types: 697 continuous, 288 integer (288 binary)
Coefficient statistics:
  Matrix range     [3e-01, 8e+02]
  Objective range  [1e+00, 1e+00]
  Bounds range     [1e+03, 1e+03]
  RHS range        [1e+00, 1e+08]

MIP start from previous solve did not produce a new incumbent solution

Presolve removed 1396 rows and 433 columns
Presolve time: 0.02s
Presolved: 1247 rows, 552 columns, 4134 nonzeros
Variable types: 475 continuous, 77 integer (77 binary)
Found heuristic solution: objective 2763.2183247

Root relaxation: objective 3.791618e+03, 832 iterations, 0.00 seconds (0.01 work units)

    Nodes    |    Current Node    |     Objective Bounds      |     Work
 Expl Unexpl |  Obj  Depth IntInf | Incumbent    BestBd   Gap | It/Node Time

     0     0 3791.61842    0    4 2763.21832 3791.61842  37.2%     -    0s
H    0     0                    3696.2500000 3791.61842  2.58%     -    0s
H    0     0                    3741.2500000 3791.61842  1.35%     -    0s
     0     0 3791.61842    0    6 3741.25000 3791.61842  1.35%     -    0s
     0     0 3791.61842    0    3 3741.25000 3791.61842  1.35%     -    0s
     0     0 3791.61842    0    9 3741.25000 3791.61842  1.35%     -    0s

Cutting planes:
  Gomory: 1
  Cover: 2
  Implied bound: 1
  MIR: 11
  Flow cover: 12
  RLT: 1

Explored 1 nodes (1020 simplex iterations) in 0.08 seconds (0.08 work units)
Thread count was 20 (of 20 available processors)

Solution count 3: 3741.25 3696.25 2763.22 

Optimal solution found (tolerance 1.00e-02)
Best objective 3.741250000000e+03, best bound 3.769232456140e+03, gap 0.7479%

User-callback calls 803, time in user-callback 0.00 sec
Set parameter TimeLimit to value 7187
Gurobi Optimizer version 9.5.2 build v9.5.2rc0 (win64)
Thread count: 10 physical cores, 20 logical processors, using up to 20 threads
Optimize a model with 3424 rows, 1237 columns and 10718 nonzeros
Model fingerprint: 0x833e0e78
Variable types: 925 continuous, 312 integer (312 binary)
Coefficient statistics:
  Matrix range     [3e-01, 8e+02]
  Objective range  [1e+00, 1e+00]
  Bounds range     [1e+03, 1e+03]
  RHS range        [1e+00, 1e+08]

MIP start from previous solve did not produce a new incumbent solution

Presolve removed 2064 rows and 631 columns
Presolve time: 0.02s
Presolved: 1360 rows, 606 columns, 4493 nonzeros
Variable types: 535 continuous, 71 integer (71 binary)
Found heuristic solution: objective 2062.4401519
Found heuristic solution: objective 2130.2454228

Root relaxation: objective 2.841618e+03, 849 iterations, 0.01 seconds (0.01 work units)

    Nodes    |    Current Node    |     Objective Bounds      |     Work
 Expl Unexpl |  Obj  Depth IntInf | Incumbent    BestBd   Gap | It/Node Time

     0     0 2841.61842    0    3 2130.24542 2841.61842  33.4%     -    0s
H    0     0                    2791.2500000 2841.61842  1.80%     -    0s
     0     0 2841.61842    0    9 2791.25000 2841.61842  1.80%     -    0s
     0     0 2809.90497    0    3 2791.25000 2809.90497  0.67%     -    0s

Cutting planes:
  Cover: 1
  Implied bound: 3
  MIR: 5
  Flow cover: 9
  Relax-and-lift: 1

Explored 1 nodes (1028 simplex iterations) in 0.08 seconds (0.09 work units)
Thread count was 20 (of 20 available processors)

Solution count 3: 2791.25 2130.25 2062.44 

Optimal solution found (tolerance 1.00e-02)
Best objective 2.791250000000e+03, best bound 2.809904970760e+03, gap 0.6683%

User-callback calls 934, time in user-callback 0.00 sec
Gurobi Optimizer version 9.5.2 build v9.5.2rc0 (win64)
Thread count: 10 physical cores, 20 logical processors, using up to 20 threads
Optimize a model with 4205 rows, 1489 columns and 13213 nonzeros
Model fingerprint: 0x7a934307
Variable types: 1153 continuous, 336 integer (336 binary)
Coefficient statistics:
  Matrix range     [3e-01, 8e+02]
  Objective range  [1e+00, 1e+00]
  Bounds range     [1e+03, 1e+03]
  RHS range        [1e+00, 1e+08]

MIP start from previous solve did not produce a new incumbent solution

Presolve removed 2383 rows and 691 columns
Presolve time: 0.03s
Presolved: 1822 rows, 798 columns, 6049 nonzeros
Variable types: 727 continuous, 71 integer (71 binary)
Found heuristic solution: objective 2061.0562500

Root relaxation: objective 2.136865e+03, 1156 iterations, 0.01 seconds (0.01 work units)

    Nodes    |    Current Node    |     Objective Bounds      |     Work
 Expl Unexpl |  Obj  Depth IntInf | Incumbent    BestBd   Gap | It/Node Time

     0     0 2136.86483    0    8 2061.05625 2136.86483  3.68%     -    0s
H    0     0                    2095.0000000 2134.39209  1.88%     -    0s
     0     0 2134.39209    0    5 2095.00000 2134.39209  1.88%     -    0s
     0     0 2129.63206    0   10 2095.00000 2129.63206  1.65%     -    0s
     0     0 2113.13191    0    7 2095.00000 2113.13191  0.87%     -    0s

Cutting planes:
  Gomory: 4
  MIR: 2
  Flow cover: 7
  Relax-and-lift: 4

Explored 1 nodes (1319 simplex iterations) in 0.10 seconds (0.11 work units)
Thread count was 20 (of 20 available processors)

Solution count 2: 2095 2061.06 

Optimal solution found (tolerance 1.00e-02)
Best objective 2.095000000000e+03, best bound 2.113131907895e+03, gap 0.8655%

User-callback calls 949, time in user-callback 0.00 sec
Set parameter TimeLimit to value 7186
Gurobi Optimizer version 9.5.2 build v9.5.2rc0 (win64)
Thread count: 10 physical cores, 20 logical processors, using up to 20 threads
Optimize a model with 4986 rows, 1741 columns and 15708 nonzeros
Model fingerprint: 0xd9af5cee
Variable types: 1381 continuous, 360 integer (360 binary)
Coefficient statistics:
  Matrix range     [3e-01, 8e+02]
  Objective range  [1e+00, 1e+00]
  Bounds range     [1e+03, 1e+03]
  RHS range        [1e+00, 1e+08]

MIP start from previous solve produced solution with objective 2085.56 (0.02s)
Loaded MIP start from previous solve with objective 2085.56

Presolve removed 2702 rows and 751 columns
Presolve time: 0.04s
Presolved: 2284 rows, 990 columns, 7593 nonzeros
Variable types: 919 continuous, 71 integer (71 binary)

Root relaxation: objective 2.093246e+03, 1394 iterations, 0.01 seconds (0.02 work units)

    Nodes    |    Current Node    |     Objective Bounds      |     Work
 Expl Unexpl |  Obj  Depth IntInf | Incumbent    BestBd   Gap | It/Node Time

     0     0 2093.24561    0    5 2085.55556 2093.24561  0.37%     -    0s

Explored 1 nodes (1454 simplex iterations) in 0.09 seconds (0.13 work units)
Thread count was 20 (of 20 available processors)

Solution count 1: 2085.56 

Optimal solution found (tolerance 1.00e-02)
Best objective 2.085555555556e+03, best bound 2.093245614035e+03, gap 0.3687%

User-callback calls 929, time in user-callback 0.00 sec
Set parameter TimeLimit to value 7185
Gurobi Optimizer version 9.5.2 build v9.5.2rc0 (win64)
Thread count: 10 physical cores, 20 logical processors, using up to 20 threads
Optimize a model with 5767 rows, 1993 columns and 18203 nonzeros
Model fingerprint: 0xb46dd898
Variable types: 1609 continuous, 384 integer (384 binary)
Coefficient statistics:
  Matrix range     [3e-01, 8e+02]
  Objective range  [1e+00, 1e+00]
  Bounds range     [1e+03, 1e+03]
  RHS range        [1e+00, 1e+08]

MIP start from previous solve produced solution with objective 1950 (0.03s)
Loaded MIP start from previous solve with objective 1950

Presolve removed 3021 rows and 811 columns
Presolve time: 0.05s
Presolved: 2746 rows, 1182 columns, 9139 nonzeros
Variable types: 1111 continuous, 71 integer (71 binary)

Root relaxation: objective 2.052880e+03, 1736 iterations, 0.01 seconds (0.03 work units)

    Nodes    |    Current Node    |     Objective Bounds      |     Work
 Expl Unexpl |  Obj  Depth IntInf | Incumbent    BestBd   Gap | It/Node Time

     0     0 2052.87975    0   10 1950.00000 2052.87975  5.28%     -    0s
     0     0 2048.02239    0   12 1950.00000 2048.02239  5.03%     -    0s
     0     0 2048.02239    0   12 1950.00000 2048.02239  5.03%     -    0s
H    0     0                    1970.0000000 2048.02239  3.96%     -    0s
     0     0 2034.86611    0   12 1970.00000 2034.86611  3.29%     -    0s
H    0     0                    1975.0000000 2034.86611  3.03%     -    0s
     0     0 2030.47853    0   11 1975.00000 2030.47853  2.81%     -    0s
     0     0 2027.92398    0   11 1975.00000 2027.92398  2.68%     -    0s
     0     0 1991.85567    0   16 1975.00000 1991.85567  0.85%     -    0s

Cutting planes:
  Gomory: 1
  Implied bound: 20
  MIR: 44
  Flow cover: 42
  RLT: 2
  Relax-and-lift: 32

Explored 1 nodes (2464 simplex iterations) in 0.22 seconds (0.24 work units)
Thread count was 20 (of 20 available processors)

Solution count 3: 1975 1970 1950 

Optimal solution found (tolerance 1.00e-02)
Best objective 1.975000000000e+03, best bound 1.991855670103e+03, gap 0.8535%

User-callback calls 977, time in user-callback 0.00 sec
Set parameter TimeLimit to value 7183
Gurobi Optimizer version 9.5.2 build v9.5.2rc0 (win64)
Thread count: 10 physical cores, 20 logical processors, using up to 20 threads
Optimize a model with 6548 rows, 2245 columns and 20698 nonzeros
Model fingerprint: 0x61abba84
Variable types: 1837 continuous, 408 integer (408 binary)
Coefficient statistics:
  Matrix range     [3e-01, 8e+02]
  Objective range  [1e+00, 1e+00]
  Bounds range     [1e+03, 1e+03]
  RHS range        [1e+00, 1e+08]

MIP start from previous solve produced solution with objective 1906.11 (0.03s)
Loaded MIP start from previous solve with objective 1906.11

Presolve removed 3340 rows and 871 columns
Presolve time: 0.06s
Presolved: 3208 rows, 1374 columns, 10688 nonzeros
Variable types: 1303 continuous, 71 integer (71 binary)

Root relaxation: objective 2.044126e+03, 2016 iterations, 0.03 seconds (0.04 work units)

    Nodes    |    Current Node    |     Objective Bounds      |     Work
 Expl Unexpl |  Obj  Depth IntInf | Incumbent    BestBd   Gap | It/Node Time

     0     0 2044.12613    0   11 1906.11111 2044.12613  7.24%     -    0s
H    0     0                    1910.0000000 2044.12613  7.02%     -    0s
     0     0 2033.76321    0   17 1910.00000 2033.76321  6.48%     -    0s
H    0     0                    1945.0000000 2021.23722  3.92%     -    0s
     0     0 2020.88118    0   16 1945.00000 2020.88118  3.90%     -    0s
     0     0 1989.75993    0   18 1945.00000 1989.75993  2.30%     -    0s
     0     0 1989.75993    0   18 1945.00000 1989.75993  2.30%     -    0s
     0     0 1957.36842    0   22 1945.00000 1957.36842  0.64%     -    0s

Cutting planes:
  Gomory: 2
  Implied bound: 8
  MIR: 47
  Flow cover: 63
  RLT: 4
  Relax-and-lift: 20

Explored 1 nodes (2709 simplex iterations) in 0.26 seconds (0.30 work units)
Thread count was 20 (of 20 available processors)

Solution count 3: 1945 1910 1906.11 

Optimal solution found (tolerance 1.00e-02)
Best objective 1.945000000000e+03, best bound 1.957368421053e+03, gap 0.6359%

User-callback calls 989, time in user-callback 0.00 sec
